c File: flat30_3_0.col
c
c SOURCE: Joseph Culberson (joe@cs.ualberta.ca)
c DESCRIPTION: Quasi-random coloring problem
c              generated with flatness = 0
c                             probability = 0.200
c                             known coloring = 3
c                             random seed = 231804
c              Creation Date:  Fri Nov 29 22:01:54 1996
c Maximum degree = 6 Minimum degree = 1
c
c cnf created by edge2cnf
p cnf 90 300
-1 -2 0
-1 -3 0
-2 -3 0
1 2 3 0
-4 -5 0
-4 -6 0
-5 -6 0
4 5 6 0
-7 -8 0
-7 -9 0
-8 -9 0
7 8 9 0
-10 -11 0
-10 -12 0
-11 -12 0
10 11 12 0
-13 -14 0
-13 -15 0
-14 -15 0
13 14 15 0
-16 -17 0
-16 -18 0
-17 -18 0
16 17 18 0
-19 -20 0
-19 -21 0
-20 -21 0
19 20 21 0
-22 -23 0
-22 -24 0
-23 -24 0
22 23 24 0
-25 -26 0
-25 -27 0
-26 -27 0
25 26 27 0
-28 -29 0
-28 -30 0
-29 -30 0
28 29 30 0
-31 -32 0
-31 -33 0
-32 -33 0
31 32 33 0
-34 -35 0
-34 -36 0
-35 -36 0
34 35 36 0
-37 -38 0
-37 -39 0
-38 -39 0
37 38 39 0
-40 -41 0
-40 -42 0
-41 -42 0
40 41 42 0
-43 -44 0
-43 -45 0
-44 -45 0
43 44 45 0
-46 -47 0
-46 -48 0
-47 -48 0
46 47 48 0
-49 -50 0
-49 -51 0
-50 -51 0
49 50 51 0
-52 -53 0
-52 -54 0
-53 -54 0
52 53 54 0
-55 -56 0
-55 -57 0
-56 -57 0
55 56 57 0
-58 -59 0
-58 -60 0
-59 -60 0
58 59 60 0
-61 -62 0
-61 -63 0
-62 -63 0
61 62 63 0
-64 -65 0
-64 -66 0
-65 -66 0
64 65 66 0
-67 -68 0
-67 -69 0
-68 -69 0
67 68 69 0
-70 -71 0
-70 -72 0
-71 -72 0
70 71 72 0
-73 -74 0
-73 -75 0
-74 -75 0
73 74 75 0
-76 -77 0
-76 -78 0
-77 -78 0
76 77 78 0
-79 -80 0
-79 -81 0
-80 -81 0
79 80 81 0
-82 -83 0
-82 -84 0
-83 -84 0
82 83 84 0
-85 -86 0
-85 -87 0
-86 -87 0
85 86 87 0
-88 -89 0
-88 -90 0
-89 -90 0
88 89 90 0
-34 -1 0
-35 -2 0
-36 -3 0
-43 -1 0
-44 -2 0
-45 -3 0
-70 -1 0
-71 -2 0
-72 -3 0
-76 -1 0
-77 -2 0
-78 -3 0
-40 -4 0
-41 -5 0
-42 -6 0
-61 -4 0
-62 -5 0
-63 -6 0
-79 -4 0
-80 -5 0
-81 -6 0
-82 -4 0
-83 -5 0
-84 -6 0
-40 -7 0
-41 -8 0
-42 -9 0
-43 -7 0
-44 -8 0
-45 -9 0
-46 -7 0
-47 -8 0
-48 -9 0
-61 -7 0
-62 -8 0
-63 -9 0
-73 -7 0
-74 -8 0
-75 -9 0
-85 -7 0
-86 -8 0
-87 -9 0
-52 -10 0
-53 -11 0
-54 -12 0
-64 -10 0
-65 -11 0
-66 -12 0
-82 -10 0
-83 -11 0
-84 -12 0
-85 -10 0
-86 -11 0
-87 -12 0
-37 -13 0
-38 -14 0
-39 -15 0
-46 -13 0
-47 -14 0
-48 -15 0
-58 -13 0
-59 -14 0
-60 -15 0
-82 -13 0
-83 -14 0
-84 -15 0
-40 -16 0
-41 -17 0
-42 -18 0
-46 -16 0
-47 -17 0
-48 -18 0
-67 -16 0
-68 -17 0
-69 -18 0
-73 -16 0
-74 -17 0
-75 -18 0
-31 -19 0
-32 -20 0
-33 -21 0
-52 -19 0
-53 -20 0
-54 -21 0
-55 -19 0
-56 -20 0
-57 -21 0
-88 -19 0
-89 -20 0
-90 -21 0
-37 -22 0
-38 -23 0
-39 -24 0
-52 -22 0
-53 -23 0
-54 -24 0
-67 -22 0
-68 -23 0
-69 -24 0
-85 -22 0
-86 -23 0
-87 -24 0
-31 -25 0
-32 -26 0
-33 -27 0
-64 -25 0
-65 -26 0
-66 -27 0
-67 -25 0
-68 -26 0
-69 -27 0
-31 -28 0
-32 -29 0
-33 -30 0
-37 -28 0
-38 -29 0
-39 -30 0
-61 -28 0
-62 -29 0
-63 -30 0
-79 -31 0
-80 -32 0
-81 -33 0
-82 -31 0
-83 -32 0
-84 -33 0
-67 -34 0
-68 -35 0
-69 -36 0
-70 -34 0
-71 -35 0
-72 -36 0
-79 -34 0
-80 -35 0
-81 -36 0
-61 -37 0
-62 -38 0
-63 -39 0
-70 -37 0
-71 -38 0
-72 -39 0
-76 -37 0
-77 -38 0
-78 -39 0
-73 -40 0
-74 -41 0
-75 -42 0
-85 -40 0
-86 -41 0
-87 -42 0
-88 -40 0
-89 -41 0
-90 -42 0
-73 -43 0
-74 -44 0
-75 -45 0
-79 -43 0
-80 -44 0
-81 -45 0
-70 -46 0
-71 -47 0
-72 -48 0
-76 -46 0
-77 -47 0
-78 -48 0
-67 -49 0
-68 -50 0
-69 -51 0
-85 -52 0
-86 -53 0
-87 -54 0
-85 -55 0
-86 -56 0
-87 -57 0
-76 -58 0
-77 -59 0
-78 -60 0
-82 -58 0
-83 -59 0
-84 -60 0
